100 500 200 500 10 100
52 499
96 421
35 338
98 455
94 348
79 339
79 316
60 455
52 401
72 433
68 332
71 357
16 430
56 352
80 286
87 449
89 303
90 405
27 400
79 341
31 218
60 364
65 484
41 284
97 442
76 284
98 205
48 370
29 243
90 438
91 280
46 363
75 255
19 324
23 325
13 453
98 393
24 426
89 383
85 460
74 476
66 346
23 434
92 315
97 384
57 255
74 387
83 347
83 435
95 296
42 384
56 300
77 262
17 351
41 484
67 217
68 303
93 390
89 328
77 412
45 455
88 425
81 334
20 482
78 491
21 225
65 223
11 297
91 299
23 479
26 457
90 492
65 308
83 495
46 283
54 396
100 271
53 327
82 340
96 372
31 284
69 402
37 421
44 342
96 397
65 303
90 265
22 362
17 424
23 257
17 409
88 493
78 472
50 335
56 326
18 340
15 302
26 468
26 440
39 493
